30 30
2 356
8 678
24 938
11 781
27 337
16 260
28 811
13 71
21 71
9 131
23 625
9 940
6 938
8 439
22 477
3 863
6 944
21 609
14 150
15 285
18 94
5 517
7 796
10 8
21 586
11 963
7 226
18 362
20 767
27 381
